(set-logic QF_UF)
(declare-fun A0 () Bool)
(declare-fun A1 () Bool)
(declare-fun A2 () Bool)
(declare-fun A3 () Bool)
(declare-fun A4 () Bool)
(declare-fun A5 () Bool)
(declare-fun A6 () Bool)
(declare-fun A7 () Bool)
(declare-fun A8 () Bool)
(declare-fun A9 () Bool)
(declare-fun A10 () Bool)
(declare-fun A11 () Bool)
(declare-fun A13 () Bool)
(declare-fun A14 () Bool)
(declare-fun A15 () Bool)
(declare-fun A16 () Bool)
(declare-fun A17 () Bool)
(declare-fun A19 () Bool)
(declare-fun A20 () Bool)
(declare-fun A21 () Bool)
(declare-fun A22 () Bool)
(declare-fun A23 () Bool)
(declare-fun A24 () Bool)
(declare-fun A25 () Bool)
(declare-fun A26 () Bool)
(declare-fun A27 () Bool)
(declare-fun A28 () Bool)
(declare-fun A29 () Bool)
(assert (let ((.def_0 (not A8))) (let ((.def_1 (and A20 .def_0))) (let ((.def_2 (not A4))) (let ((.def_3 (and A6 .def_2))) (let ((.def_4 (and .def_3 .def_1))) (let ((.def_5 (not .def_4))) (let ((.def_6 (not A2))) (let ((.def_7 (not A16))) (let ((.def_8 (= .def_7 .def_6))) (let ((.def_9 (not .def_8))) (let ((.def_10 (or A4 A23))) (let ((.def_11 (= .def_10 .def_9))) (let ((.def_12 (not .def_11))) (let ((.def_13 (and .def_12 .def_5))) (let ((.def_14 (not .def_13))) (let ((.def_15 (not A29))) (let ((.def_16 (or .def_15 .def_6))) (let ((.def_17 (not .def_16))) (let ((.def_18 (not A21))) (let ((.def_19 (not A6))) (let ((.def_20 (or .def_19 .def_18))) (let ((.def_21 (not .def_20))) (let ((.def_22 (or .def_21 .def_17))) (let ((.def_23 (not .def_22))) (let ((.def_24 (and A6 A26))) (let ((.def_25 (or A9 .def_7))) (let ((.def_26 (or .def_25 .def_24))) (let ((.def_27 (= .def_26 .def_23))) (let ((.def_28 (and .def_27 .def_14))) (let ((.def_29 (not .def_28))) (let ((.def_30 (or A27 A2))) (let ((.def_31 (not A14))) (let ((.def_32 (not A22))) (let ((.def_33 (= .def_32 .def_31))) (let ((.def_34 (and .def_33 .def_30))) (let ((.def_35 (not .def_34))) (let ((.def_36 (or A2 A4))) (let ((.def_37 (not A17))) (let ((.def_38 (not A27))) (let ((.def_39 (and .def_38 .def_37))) (let ((.def_40 (not .def_39))) (let ((.def_41 (or .def_40 .def_36))) (let ((.def_42 (= .def_41 .def_35))) (let ((.def_43 (not .def_42))) (let ((.def_44 (and A2 A25))) (let ((.def_45 (not .def_44))) (let ((.def_46 (not A20))) (let ((.def_47 (or .def_46 A6))) (let ((.def_48 (or .def_47 .def_45))) (let ((.def_49 (not .def_48))) (let ((.def_50 (and A22 A5))) (let ((.def_51 (not .def_50))) (let ((.def_52 (not A19))) (let ((.def_53 (or A7 .def_52))) (let ((.def_54 (not .def_53))) (let ((.def_55 (or .def_54 .def_51))) (let ((.def_56 (= .def_55 .def_49))) (let ((.def_57 (or .def_56 .def_43))) (let ((.def_58 (not .def_57))) (let ((.def_59 (or .def_58 .def_29))) (let ((.def_60 (not .def_59))) (let ((.def_61 (not A11))) (let ((.def_62 (or A27 .def_61))) (let ((.def_63 (not .def_62))) (let ((.def_64 (= .def_6 A3))) (let ((.def_65 (or .def_64 .def_63))) (let ((.def_66 (or .def_7 A24))) (let ((.def_67 (not .def_66))) (let ((.def_68 (and .def_32 A11))) (let ((.def_69 (not .def_68))) (let ((.def_70 (or .def_69 .def_67))) (let ((.def_71 (not .def_70))) (let ((.def_72 (or .def_71 .def_65))) (let ((.def_73 (not A7))) (let ((.def_74 (or .def_73 .def_2))) (let ((.def_75 (not A0))) (let ((.def_76 (and .def_75 A22))) (let ((.def_77 (or .def_76 .def_74))) (let ((.def_78 (not .def_77))) (let ((.def_79 (not A24))) (let ((.def_80 (and .def_79 .def_38))) (let ((.def_81 (and A15 A17))) (let ((.def_82 (and .def_81 .def_80))) (let ((.def_83 (and .def_82 .def_78))) (let ((.def_84 (not .def_83))) (let ((.def_85 (and .def_84 .def_72))) (let ((.def_86 (not .def_85))) (let ((.def_87 (not A1))) (let ((.def_88 (= .def_87 .def_6))) (let ((.def_89 (or A20 .def_75))) (let ((.def_90 (not .def_89))) (let ((.def_91 (and .def_90 .def_88))) (let ((.def_92 (not .def_91))) (let ((.def_93 (not A13))) (let ((.def_94 (or .def_93 .def_7))) (let ((.def_95 (or .def_18 A17))) (let ((.def_96 (and .def_95 .def_94))) (let ((.def_97 (or .def_96 .def_92))) (let ((.def_98 (and A14 A10))) (let ((.def_99 (= A28 A25))) (let ((.def_100 (not .def_99))) (let ((.def_101 (= .def_100 .def_98))) (let ((.def_102 (not A5))) (let ((.def_103 (or .def_102 A3))) (let ((.def_104 (not .def_103))) (let ((.def_105 (not A23))) (let ((.def_106 (or .def_102 .def_105))) (let ((.def_107 (not .def_106))) (let ((.def_108 (and .def_107 .def_104))) (let ((.def_109 (or .def_108 .def_101))) (let ((.def_110 (not .def_109))) (let ((.def_111 (and .def_110 .def_97))) (let ((.def_112 (or .def_111 .def_86))) (let ((.def_113 (not .def_112))) (let ((.def_114 (or .def_113 .def_60))) (let ((.def_115 (not .def_114))) .def_115)))))))))))))))))))))))))))))))))))))))))))))))))))))))))))))))))))))))))))))))))))))))))))))))))))))))))))))))))))))
(check-sat)
